
Minimize
 obj: x__E_21_
Subject To
1 x__0_0_ + 1 x__0_1_ + 1 x__0_2_ + 1 x__0_3_ + 1 x__0_4_ + 1 x__0_5_ + 1 x__0_6_ + 1 x__0_7_ + 1 x__0_8_ + 1 x__0_9_ + 1 x__0_10_ = 1
1 x__0_1_ + 2 x__0_2_ + 3 x__0_3_ + 4 x__0_4_ + 5 x__0_5_ + 6 x__0_6_ + 7 x__0_7_ + 8 x__0_8_ + 9 x__0_9_ + 10 x__0_10_ + -1 x__E_0_ = 0
1 x__1_0_ + 1 x__1_1_ + 1 x__1_2_ + 1 x__1_3_ + 1 x__1_4_ + 1 x__1_5_ + 1 x__1_6_ + 1 x__1_7_ + 1 x__1_8_ + 1 x__1_9_ + 1 x__1_10_ = 35
1 x__1_1_ + 2 x__1_2_ + 3 x__1_3_ + 4 x__1_4_ + 5 x__1_5_ + 6 x__1_6_ + 7 x__1_7_ + 8 x__1_8_ + 9 x__1_9_ + 10 x__1_10_ + -35 x__E_1_ = 0
1 x__2_0_ + 1 x__2_1_ + 1 x__2_2_ + 1 x__2_3_ + 1 x__2_4_ + 1 x__2_5_ + 1 x__2_6_ + 1 x__2_7_ + 1 x__2_8_ + 1 x__2_9_ + 1 x__2_10_ = 595
1 x__2_1_ + 2 x__2_2_ + 3 x__2_3_ + 4 x__2_4_ + 5 x__2_5_ + 6 x__2_6_ + 7 x__2_7_ + 8 x__2_8_ + 9 x__2_9_ + 10 x__2_10_ + -595 x__E_2_ = 0
1 x__3_0_ + 1 x__3_1_ + 1 x__3_2_ + 1 x__3_3_ + 1 x__3_4_ + 1 x__3_5_ + 1 x__3_6_ + 1 x__3_7_ + 1 x__3_8_ + 1 x__3_9_ + 1 x__3_10_ = 6545
1 x__3_1_ + 2 x__3_2_ + 3 x__3_3_ + 4 x__3_4_ + 5 x__3_5_ + 6 x__3_6_ + 7 x__3_7_ + 8 x__3_8_ + 9 x__3_9_ + 10 x__3_10_ + -6545 x__E_3_ = 0
1 x__4_0_ + 1 x__4_1_ + 1 x__4_2_ + 1 x__4_3_ + 1 x__4_4_ + 1 x__4_5_ + 1 x__4_6_ + 1 x__4_7_ + 1 x__4_8_ + 1 x__4_9_ + 1 x__4_10_ = 52360
1 x__4_1_ + 2 x__4_2_ + 3 x__4_3_ + 4 x__4_4_ + 5 x__4_5_ + 6 x__4_6_ + 7 x__4_7_ + 8 x__4_8_ + 9 x__4_9_ + 10 x__4_10_ + -52360 x__E_4_ = 0
1 x__5_0_ + 1 x__5_1_ + 1 x__5_2_ + 1 x__5_3_ + 1 x__5_4_ + 1 x__5_5_ + 1 x__5_6_ + 1 x__5_7_ + 1 x__5_8_ + 1 x__5_9_ + 1 x__5_10_ = 324632
1 x__5_1_ + 2 x__5_2_ + 3 x__5_3_ + 4 x__5_4_ + 5 x__5_5_ + 6 x__5_6_ + 7 x__5_7_ + 8 x__5_8_ + 9 x__5_9_ + 10 x__5_10_ + -324632 x__E_5_ = 0
1 x__6_0_ + 1 x__6_1_ + 1 x__6_2_ + 1 x__6_3_ + 1 x__6_4_ + 1 x__6_5_ + 1 x__6_6_ + 1 x__6_7_ + 1 x__6_8_ + 1 x__6_9_ + 1 x__6_10_ = 1623160
1 x__6_1_ + 2 x__6_2_ + 3 x__6_3_ + 4 x__6_4_ + 5 x__6_5_ + 6 x__6_6_ + 7 x__6_7_ + 8 x__6_8_ + 9 x__6_9_ + 10 x__6_10_ + -1623160 x__E_6_ = 0
1 x__7_0_ + 1 x__7_1_ + 1 x__7_2_ + 1 x__7_3_ + 1 x__7_4_ + 1 x__7_5_ + 1 x__7_6_ + 1 x__7_7_ + 1 x__7_8_ + 1 x__7_9_ + 1 x__7_10_ = 6724520
1 x__7_1_ + 2 x__7_2_ + 3 x__7_3_ + 4 x__7_4_ + 5 x__7_5_ + 6 x__7_6_ + 7 x__7_7_ + 8 x__7_8_ + 9 x__7_9_ + 10 x__7_10_ + -6724520 x__E_7_ = 0
1 x__8_0_ + 1 x__8_1_ + 1 x__8_2_ + 1 x__8_3_ + 1 x__8_4_ + 1 x__8_5_ + 1 x__8_6_ + 1 x__8_7_ + 1 x__8_8_ + 1 x__8_9_ + 1 x__8_10_ = 23535820
1 x__8_1_ + 2 x__8_2_ + 3 x__8_3_ + 4 x__8_4_ + 5 x__8_5_ + 6 x__8_6_ + 7 x__8_7_ + 8 x__8_8_ + 9 x__8_9_ + 10 x__8_10_ + -23535820 x__E_8_ = 0
1 x__9_0_ + 1 x__9_1_ + 1 x__9_2_ + 1 x__9_3_ + 1 x__9_4_ + 1 x__9_5_ + 1 x__9_6_ + 1 x__9_7_ + 1 x__9_8_ + 1 x__9_9_ + 1 x__9_10_ = 70607460
1 x__9_1_ + 2 x__9_2_ + 3 x__9_3_ + 4 x__9_4_ + 5 x__9_5_ + 6 x__9_6_ + 7 x__9_7_ + 8 x__9_8_ + 9 x__9_9_ + 10 x__9_10_ + -70607460 x__E_9_ = 0
1 x__10_0_ + 1 x__10_1_ + 1 x__10_2_ + 1 x__10_3_ + 1 x__10_4_ + 1 x__10_5_ + 1 x__10_6_ + 1 x__10_7_ + 1 x__10_8_ + 1 x__10_9_ + 1 x__10_10_ = 183579396
1 x__10_1_ + 2 x__10_2_ + 3 x__10_3_ + 4 x__10_4_ + 5 x__10_5_ + 6 x__10_6_ + 7 x__10_7_ + 8 x__10_8_ + 9 x__10_9_ + 10 x__10_10_ + -183579396 x__E_10_ = 0
1 x__11_0_ + 1 x__11_1_ + 1 x__11_2_ + 1 x__11_3_ + 1 x__11_4_ + 1 x__11_5_ + 1 x__11_6_ + 1 x__11_7_ + 1 x__11_8_ + 1 x__11_9_ + 1 x__11_10_ = 417225900
1 x__11_1_ + 2 x__11_2_ + 3 x__11_3_ + 4 x__11_4_ + 5 x__11_5_ + 6 x__11_6_ + 7 x__11_7_ + 8 x__11_8_ + 9 x__11_9_ + 10 x__11_10_ + -417225900 x__E_11_ = 0
1 x__12_0_ + 1 x__12_1_ + 1 x__12_2_ + 1 x__12_3_ + 1 x__12_4_ + 1 x__12_5_ + 1 x__12_6_ + 1 x__12_7_ + 1 x__12_8_ + 1 x__12_9_ + 1 x__12_10_ = 834451800
1 x__12_1_ + 2 x__12_2_ + 3 x__12_3_ + 4 x__12_4_ + 5 x__12_5_ + 6 x__12_6_ + 7 x__12_7_ + 8 x__12_8_ + 9 x__12_9_ + 10 x__12_10_ + -834451800 x__E_12_ = 0
1 x__13_0_ + 1 x__13_1_ + 1 x__13_2_ + 1 x__13_3_ + 1 x__13_4_ + 1 x__13_5_ + 1 x__13_6_ + 1 x__13_7_ + 1 x__13_8_ + 1 x__13_9_ + 1 x__13_10_ = 1476337800
1 x__13_1_ + 2 x__13_2_ + 3 x__13_3_ + 4 x__13_4_ + 5 x__13_5_ + 6 x__13_6_ + 7 x__13_7_ + 8 x__13_8_ + 9 x__13_9_ + 10 x__13_10_ + -1476337800 x__E_13_ = 0
1 x__14_0_ + 1 x__14_1_ + 1 x__14_2_ + 1 x__14_3_ + 1 x__14_4_ + 1 x__14_5_ + 1 x__14_6_ + 1 x__14_7_ + 1 x__14_8_ + 1 x__14_9_ + 1 x__14_10_ = 2319959400
1 x__14_1_ + 2 x__14_2_ + 3 x__14_3_ + 4 x__14_4_ + 5 x__14_5_ + 6 x__14_6_ + 7 x__14_7_ + 8 x__14_8_ + 9 x__14_9_ + 10 x__14_10_ + -2319959400 x__E_14_ = 0
1 x__15_0_ + 1 x__15_1_ + 1 x__15_2_ + 1 x__15_3_ + 1 x__15_4_ + 1 x__15_5_ + 1 x__15_6_ + 1 x__15_7_ + 1 x__15_8_ + 1 x__15_9_ + 1 x__15_10_ = 3247943160
1 x__15_1_ + 2 x__15_2_ + 3 x__15_3_ + 4 x__15_4_ + 5 x__15_5_ + 6 x__15_6_ + 7 x__15_7_ + 8 x__15_8_ + 9 x__15_9_ + 10 x__15_10_ + -3247943160 x__E_15_ = 0
1 x__16_0_ + 1 x__16_1_ + 1 x__16_2_ + 1 x__16_3_ + 1 x__16_4_ + 1 x__16_5_ + 1 x__16_6_ + 1 x__16_7_ + 1 x__16_8_ + 1 x__16_9_ + 1 x__16_10_ = 4059928950
1 x__16_1_ + 2 x__16_2_ + 3 x__16_3_ + 4 x__16_4_ + 5 x__16_5_ + 6 x__16_6_ + 7 x__16_7_ + 8 x__16_8_ + 9 x__16_9_ + 10 x__16_10_ + -4059928950 x__E_16_ = 0
1 x__17_0_ + 1 x__17_1_ + 1 x__17_2_ + 1 x__17_3_ + 1 x__17_4_ + 1 x__17_5_ + 1 x__17_6_ + 1 x__17_7_ + 1 x__17_8_ + 1 x__17_9_ + 1 x__17_10_ = 4537567650
1 x__17_1_ + 2 x__17_2_ + 3 x__17_3_ + 4 x__17_4_ + 5 x__17_5_ + 6 x__17_6_ + 7 x__17_7_ + 8 x__17_8_ + 9 x__17_9_ + 10 x__17_10_ + -4537567650 x__E_17_ = 0
1 x__18_0_ + 1 x__18_1_ + 1 x__18_2_ + 1 x__18_3_ + 1 x__18_4_ + 1 x__18_5_ + 1 x__18_6_ + 1 x__18_7_ + 1 x__18_8_ + 1 x__18_9_ + 1 x__18_10_ = 4537567650
1 x__18_1_ + 2 x__18_2_ + 3 x__18_3_ + 4 x__18_4_ + 5 x__18_5_ + 6 x__18_6_ + 7 x__18_7_ + 8 x__18_8_ + 9 x__18_9_ + 10 x__18_10_ + -4537567650 x__E_18_ = 0
1 x__19_0_ + 1 x__19_1_ + 1 x__19_2_ + 1 x__19_3_ + 1 x__19_4_ + 1 x__19_5_ + 1 x__19_6_ + 1 x__19_7_ + 1 x__19_8_ + 1 x__19_9_ + 1 x__19_10_ = 4059928950
1 x__19_1_ + 2 x__19_2_ + 3 x__19_3_ + 4 x__19_4_ + 5 x__19_5_ + 6 x__19_6_ + 7 x__19_7_ + 8 x__19_8_ + 9 x__19_9_ + 10 x__19_10_ + -4059928950 x__E_19_ = 0
1 x__20_0_ + 1 x__20_1_ + 1 x__20_2_ + 1 x__20_3_ + 1 x__20_4_ + 1 x__20_5_ + 1 x__20_6_ + 1 x__20_7_ + 1 x__20_8_ + 1 x__20_9_ + 1 x__20_10_ = 3247943160
1 x__20_1_ + 2 x__20_2_ + 3 x__20_3_ + 4 x__20_4_ + 5 x__20_5_ + 6 x__20_6_ + 7 x__20_7_ + 8 x__20_8_ + 9 x__20_9_ + 10 x__20_10_ + -3247943160 x__E_20_ = 0
1 x__21_0_ + 1 x__21_1_ + 1 x__21_2_ + 1 x__21_3_ + 1 x__21_4_ + 1 x__21_5_ + 1 x__21_6_ + 1 x__21_7_ + 1 x__21_8_ + 1 x__21_9_ + 1 x__21_10_ = 2319959400
1 x__21_1_ + 2 x__21_2_ + 3 x__21_3_ + 4 x__21_4_ + 5 x__21_5_ + 6 x__21_6_ + 7 x__21_7_ + 8 x__21_8_ + 9 x__21_9_ + 10 x__21_10_ + -2319959400 x__E_21_ = 0
1 x__22_0_ + 1 x__22_1_ + 1 x__22_2_ + 1 x__22_3_ + 1 x__22_4_ + 1 x__22_5_ + 1 x__22_6_ + 1 x__22_7_ + 1 x__22_8_ + 1 x__22_9_ + 1 x__22_10_ = 1476337800
1 x__22_1_ + 2 x__22_2_ + 3 x__22_3_ + 4 x__22_4_ + 5 x__22_5_ + 6 x__22_6_ + 7 x__22_7_ + 8 x__22_8_ + 9 x__22_9_ + 10 x__22_10_ + -1476337800 x__E_22_ = 0
1 x__23_0_ + 1 x__23_1_ + 1 x__23_2_ + 1 x__23_3_ + 1 x__23_4_ + 1 x__23_5_ + 1 x__23_6_ + 1 x__23_7_ + 1 x__23_8_ + 1 x__23_9_ + 1 x__23_10_ = 834451800
1 x__23_1_ + 2 x__23_2_ + 3 x__23_3_ + 4 x__23_4_ + 5 x__23_5_ + 6 x__23_6_ + 7 x__23_7_ + 8 x__23_8_ + 9 x__23_9_ + 10 x__23_10_ + -834451800 x__E_23_ = 0
1 x__24_0_ + 1 x__24_1_ + 1 x__24_2_ + 1 x__24_3_ + 1 x__24_4_ + 1 x__24_5_ + 1 x__24_6_ + 1 x__24_7_ + 1 x__24_8_ + 1 x__24_9_ + 1 x__24_10_ = 417225900
1 x__24_1_ + 2 x__24_2_ + 3 x__24_3_ + 4 x__24_4_ + 5 x__24_5_ + 6 x__24_6_ + 7 x__24_7_ + 8 x__24_8_ + 9 x__24_9_ + 10 x__24_10_ + -417225900 x__E_24_ = 0
1 x__25_0_ + 1 x__25_1_ + 1 x__25_2_ + 1 x__25_3_ + 1 x__25_4_ + 1 x__25_5_ + 1 x__25_6_ + 1 x__25_7_ + 1 x__25_8_ + 1 x__25_9_ + 1 x__25_10_ = 183579396
1 x__25_1_ + 2 x__25_2_ + 3 x__25_3_ + 4 x__25_4_ + 5 x__25_5_ + 6 x__25_6_ + 7 x__25_7_ + 8 x__25_8_ + 9 x__25_9_ + 10 x__25_10_ + -183579396 x__E_25_ = 0
1 x__26_0_ + 1 x__26_1_ + 1 x__26_2_ + 1 x__26_3_ + 1 x__26_4_ + 1 x__26_5_ + 1 x__26_6_ + 1 x__26_7_ + 1 x__26_8_ + 1 x__26_9_ + 1 x__26_10_ = 70607460
1 x__26_1_ + 2 x__26_2_ + 3 x__26_3_ + 4 x__26_4_ + 5 x__26_5_ + 6 x__26_6_ + 7 x__26_7_ + 8 x__26_8_ + 9 x__26_9_ + 10 x__26_10_ + -70607460 x__E_26_ = 0
1 x__27_0_ + 1 x__27_1_ + 1 x__27_2_ + 1 x__27_3_ + 1 x__27_4_ + 1 x__27_5_ + 1 x__27_6_ + 1 x__27_7_ + 1 x__27_8_ + 1 x__27_9_ + 1 x__27_10_ = 23535820
1 x__27_1_ + 2 x__27_2_ + 3 x__27_3_ + 4 x__27_4_ + 5 x__27_5_ + 6 x__27_6_ + 7 x__27_7_ + 8 x__27_8_ + 9 x__27_9_ + 10 x__27_10_ + -23535820 x__E_27_ = 0
1 x__28_0_ + 1 x__28_1_ + 1 x__28_2_ + 1 x__28_3_ + 1 x__28_4_ + 1 x__28_5_ + 1 x__28_6_ + 1 x__28_7_ + 1 x__28_8_ + 1 x__28_9_ + 1 x__28_10_ = 6724520
1 x__28_1_ + 2 x__28_2_ + 3 x__28_3_ + 4 x__28_4_ + 5 x__28_5_ + 6 x__28_6_ + 7 x__28_7_ + 8 x__28_8_ + 9 x__28_9_ + 10 x__28_10_ + -6724520 x__E_28_ = 0
1 x__29_0_ + 1 x__29_1_ + 1 x__29_2_ + 1 x__29_3_ + 1 x__29_4_ + 1 x__29_5_ + 1 x__29_6_ + 1 x__29_7_ + 1 x__29_8_ + 1 x__29_9_ + 1 x__29_10_ = 1623160
1 x__29_1_ + 2 x__29_2_ + 3 x__29_3_ + 4 x__29_4_ + 5 x__29_5_ + 6 x__29_6_ + 7 x__29_7_ + 8 x__29_8_ + 9 x__29_9_ + 10 x__29_10_ + -1623160 x__E_29_ = 0
1 x__30_0_ + 1 x__30_1_ + 1 x__30_2_ + 1 x__30_3_ + 1 x__30_4_ + 1 x__30_5_ + 1 x__30_6_ + 1 x__30_7_ + 1 x__30_8_ + 1 x__30_9_ + 1 x__30_10_ = 324632
1 x__30_1_ + 2 x__30_2_ + 3 x__30_3_ + 4 x__30_4_ + 5 x__30_5_ + 6 x__30_6_ + 7 x__30_7_ + 8 x__30_8_ + 9 x__30_9_ + 10 x__30_10_ + -324632 x__E_30_ = 0
1 x__31_0_ + 1 x__31_1_ + 1 x__31_2_ + 1 x__31_3_ + 1 x__31_4_ + 1 x__31_5_ + 1 x__31_6_ + 1 x__31_7_ + 1 x__31_8_ + 1 x__31_9_ + 1 x__31_10_ = 52360
1 x__31_1_ + 2 x__31_2_ + 3 x__31_3_ + 4 x__31_4_ + 5 x__31_5_ + 6 x__31_6_ + 7 x__31_7_ + 8 x__31_8_ + 9 x__31_9_ + 10 x__31_10_ + -52360 x__E_31_ = 0
1 x__32_0_ + 1 x__32_1_ + 1 x__32_2_ + 1 x__32_3_ + 1 x__32_4_ + 1 x__32_5_ + 1 x__32_6_ + 1 x__32_7_ + 1 x__32_8_ + 1 x__32_9_ + 1 x__32_10_ = 6545
1 x__32_1_ + 2 x__32_2_ + 3 x__32_3_ + 4 x__32_4_ + 5 x__32_5_ + 6 x__32_6_ + 7 x__32_7_ + 8 x__32_8_ + 9 x__32_9_ + 10 x__32_10_ + -6545 x__E_32_ = 0
1 x__33_0_ + 1 x__33_1_ + 1 x__33_2_ + 1 x__33_3_ + 1 x__33_4_ + 1 x__33_5_ + 1 x__33_6_ + 1 x__33_7_ + 1 x__33_8_ + 1 x__33_9_ + 1 x__33_10_ = 595
1 x__33_1_ + 2 x__33_2_ + 3 x__33_3_ + 4 x__33_4_ + 5 x__33_5_ + 6 x__33_6_ + 7 x__33_7_ + 8 x__33_8_ + 9 x__33_9_ + 10 x__33_10_ + -595 x__E_33_ = 0
1 x__34_0_ + 1 x__34_1_ + 1 x__34_2_ + 1 x__34_3_ + 1 x__34_4_ + 1 x__34_5_ + 1 x__34_6_ + 1 x__34_7_ + 1 x__34_8_ + 1 x__34_9_ + 1 x__34_10_ = 35
1 x__34_1_ + 2 x__34_2_ + 3 x__34_3_ + 4 x__34_4_ + 5 x__34_5_ + 6 x__34_6_ + 7 x__34_7_ + 8 x__34_8_ + 9 x__34_9_ + 10 x__34_10_ + -35 x__E_34_ = 0
1 x__35_0_ + 1 x__35_1_ + 1 x__35_2_ + 1 x__35_3_ + 1 x__35_4_ + 1 x__35_5_ + 1 x__35_6_ + 1 x__35_7_ + 1 x__35_8_ + 1 x__35_9_ + 1 x__35_10_ = 1
1 x__35_1_ + 2 x__35_2_ + 3 x__35_3_ + 4 x__35_4_ + 5 x__35_5_ + 6 x__35_6_ + 7 x__35_7_ + 8 x__35_8_ + 9 x__35_9_ + 10 x__35_10_ + -1 x__E_35_ = 0
1 x__0_0_ + 1 x__1_0_ + 1 x__2_0_ + 1 x__3_0_ + 1 x__4_0_ + 1 x__5_0_ + 1 x__6_0_ + 1 x__7_0_ + 1 x__8_0_ + 1 x__9_0_ + 1 x__10_0_ + 1 x__11_0_ + 1 x__12_0_ + 1 x__13_0_ + 1 x__14_0_ + 1 x__15_0_ + 1 x__16_0_ + 1 x__17_0_ + 1 x__18_0_ + 1 x__19_0_ + 1 x__20_0_ + 1 x__21_0_ + 1 x__22_0_ + 1 x__23_0_ + 1 x__24_0_ + 1 x__25_0_ + 1 x__26_0_ + 1 x__27_0_ + 1 x__28_0_ + 1 x__29_0_ + 1 x__30_0_ + 1 x__31_0_ + 1 x__32_0_ + 1 x__33_0_ + 1 x__34_0_ + 1 x__35_0_ <= 1
1 x__0_1_ + 1 x__1_1_ + 1 x__2_1_ + 1 x__3_1_ + 1 x__4_1_ + 1 x__5_1_ + 1 x__6_1_ + 1 x__7_1_ + 1 x__8_1_ + 1 x__9_1_ + 1 x__10_1_ + 1 x__11_1_ + 1 x__12_1_ + 1 x__13_1_ + 1 x__14_1_ + 1 x__15_1_ + 1 x__16_1_ + 1 x__17_1_ + 1 x__18_1_ + 1 x__19_1_ + 1 x__20_1_ + 1 x__21_1_ + 1 x__22_1_ + 1 x__23_1_ + 1 x__24_1_ + 1 x__25_1_ + 1 x__26_1_ + 1 x__27_1_ + 1 x__28_1_ + 1 x__29_1_ + 1 x__30_1_ + 1 x__31_1_ + 1 x__32_1_ + 1 x__33_1_ + 1 x__34_1_ + 1 x__35_1_ <= 2097152
1 x__0_2_ + 1 x__1_2_ + 1 x__2_2_ + 1 x__3_2_ + 1 x__4_2_ + 1 x__5_2_ + 1 x__6_2_ + 1 x__7_2_ + 1 x__8_2_ + 1 x__9_2_ + 1 x__10_2_ + 1 x__11_2_ + 1 x__12_2_ + 1 x__13_2_ + 1 x__14_2_ + 1 x__15_2_ + 1 x__16_2_ + 1 x__17_2_ + 1 x__18_2_ + 1 x__19_2_ + 1 x__20_2_ + 1 x__21_2_ + 1 x__22_2_ + 1 x__23_2_ + 1 x__24_2_ + 1 x__25_2_ + 1 x__26_2_ + 1 x__27_2_ + 1 x__28_2_ + 1 x__29_2_ + 1 x__30_2_ + 1 x__31_2_ + 1 x__32_2_ + 1 x__33_2_ + 1 x__34_2_ + 1 x__35_2_ <= 8796093022208
1 x__0_3_ + 1 x__1_3_ + 1 x__2_3_ + 1 x__3_3_ + 1 x__4_3_ + 1 x__5_3_ + 1 x__6_3_ + 1 x__7_3_ + 1 x__8_3_ + 1 x__9_3_ + 1 x__10_3_ + 1 x__11_3_ + 1 x__12_3_ + 1 x__13_3_ + 1 x__14_3_ + 1 x__15_3_ + 1 x__16_3_ + 1 x__17_3_ + 1 x__18_3_ + 1 x__19_3_ + 1 x__20_3_ + 1 x__21_3_ + 1 x__22_3_ + 1 x__23_3_ + 1 x__24_3_ + 1 x__25_3_ + 1 x__26_3_ + 1 x__27_3_ + 1 x__28_3_ + 1 x__29_3_ + 1 x__30_3_ + 1 x__31_3_ + 1 x__32_3_ + 1 x__33_3_ + 1 x__34_3_ + 1 x__35_3_ <= 73786976294838206464
1 x__0_4_ + 1 x__1_4_ + 1 x__2_4_ + 1 x__3_4_ + 1 x__4_4_ + 1 x__5_4_ + 1 x__6_4_ + 1 x__7_4_ + 1 x__8_4_ + 1 x__9_4_ + 1 x__10_4_ + 1 x__11_4_ + 1 x__12_4_ + 1 x__13_4_ + 1 x__14_4_ + 1 x__15_4_ + 1 x__16_4_ + 1 x__17_4_ + 1 x__18_4_ + 1 x__19_4_ + 1 x__20_4_ + 1 x__21_4_ + 1 x__22_4_ + 1 x__23_4_ + 1 x__24_4_ + 1 x__25_4_ + 1 x__26_4_ + 1 x__27_4_ + 1 x__28_4_ + 1 x__29_4_ + 1 x__30_4_ + 1 x__31_4_ + 1 x__32_4_ + 1 x__33_4_ + 1 x__34_4_ + 1 x__35_4_ <= 1237940039285380274899124224
1 x__0_5_ + 1 x__1_5_ + 1 x__2_5_ + 1 x__3_5_ + 1 x__4_5_ + 1 x__5_5_ + 1 x__6_5_ + 1 x__7_5_ + 1 x__8_5_ + 1 x__9_5_ + 1 x__10_5_ + 1 x__11_5_ + 1 x__12_5_ + 1 x__13_5_ + 1 x__14_5_ + 1 x__15_5_ + 1 x__16_5_ + 1 x__17_5_ + 1 x__18_5_ + 1 x__19_5_ + 1 x__20_5_ + 1 x__21_5_ + 1 x__22_5_ + 1 x__23_5_ + 1 x__24_5_ + 1 x__25_5_ + 1 x__26_5_ + 1 x__27_5_ + 1 x__28_5_ + 1 x__29_5_ + 1 x__30_5_ + 1 x__31_5_ + 1 x__32_5_ + 1 x__33_5_ + 1 x__34_5_ + 1 x__35_5_ <= 41538374868278621028243970633760768
1 x__0_6_ + 1 x__1_6_ + 1 x__2_6_ + 1 x__3_6_ + 1 x__4_6_ + 1 x__5_6_ + 1 x__6_6_ + 1 x__7_6_ + 1 x__8_6_ + 1 x__9_6_ + 1 x__10_6_ + 1 x__11_6_ + 1 x__12_6_ + 1 x__13_6_ + 1 x__14_6_ + 1 x__15_6_ + 1 x__16_6_ + 1 x__17_6_ + 1 x__18_6_ + 1 x__19_6_ + 1 x__20_6_ + 1 x__21_6_ + 1 x__22_6_ + 1 x__23_6_ + 1 x__24_6_ + 1 x__25_6_ + 1 x__26_6_ + 1 x__27_6_ + 1 x__28_6_ + 1 x__29_6_ + 1 x__30_6_ + 1 x__31_6_ + 1 x__32_6_ + 1 x__33_6_ + 1 x__34_6_ + 1 x__35_6_ <= 2787593149816327892691964784081045188247552
1 x__0_7_ + 1 x__1_7_ + 1 x__2_7_ + 1 x__3_7_ + 1 x__4_7_ + 1 x__5_7_ + 1 x__6_7_ + 1 x__7_7_ + 1 x__8_7_ + 1 x__9_7_ + 1 x__10_7_ + 1 x__11_7_ + 1 x__12_7_ + 1 x__13_7_ + 1 x__14_7_ + 1 x__15_7_ + 1 x__16_7_ + 1 x__17_7_ + 1 x__18_7_ + 1 x__19_7_ + 1 x__20_7_ + 1 x__21_7_ + 1 x__22_7_ + 1 x__23_7_ + 1 x__24_7_ + 1 x__25_7_ + 1 x__26_7_ + 1 x__27_7_ + 1 x__28_7_ + 1 x__29_7_ + 1 x__30_7_ + 1 x__31_7_ + 1 x__32_7_ + 1 x__33_7_ + 1 x__34_7_ + 1 x__35_7_ <= 374144419156711147060143317175368453031918731001856
1 x__0_8_ + 1 x__1_8_ + 1 x__2_8_ + 1 x__3_8_ + 1 x__4_8_ + 1 x__5_8_ + 1 x__6_8_ + 1 x__7_8_ + 1 x__8_8_ + 1 x__9_8_ + 1 x__10_8_ + 1 x__11_8_ + 1 x__12_8_ + 1 x__13_8_ + 1 x__14_8_ + 1 x__15_8_ + 1 x__16_8_ + 1 x__17_8_ + 1 x__18_8_ + 1 x__19_8_ + 1 x__20_8_ + 1 x__21_8_ + 1 x__22_8_ + 1 x__23_8_ + 1 x__24_8_ + 1 x__25_8_ + 1 x__26_8_ + 1 x__27_8_ + 1 x__28_8_ + 1 x__29_8_ + 1 x__30_8_ + 1 x__31_8_ + 1 x__32_8_ + 1 x__33_8_ + 1 x__34_8_ + 1 x__35_8_ <= 100433627766186892221372630771322662657637687111424552206336
1 x__0_9_ + 1 x__1_9_ + 1 x__2_9_ + 1 x__3_9_ + 1 x__4_9_ + 1 x__5_9_ + 1 x__6_9_ + 1 x__7_9_ + 1 x__8_9_ + 1 x__9_9_ + 1 x__10_9_ + 1 x__11_9_ + 1 x__12_9_ + 1 x__13_9_ + 1 x__14_9_ + 1 x__15_9_ + 1 x__16_9_ + 1 x__17_9_ + 1 x__18_9_ + 1 x__19_9_ + 1 x__20_9_ + 1 x__21_9_ + 1 x__22_9_ + 1 x__23_9_ + 1 x__24_9_ + 1 x__25_9_ + 1 x__26_9_ + 1 x__27_9_ + 1 x__28_9_ + 1 x__29_9_ + 1 x__30_9_ + 1 x__31_9_ + 1 x__32_9_ + 1 x__33_9_ + 1 x__34_9_ + 1 x__35_9_ <= 53919893334301279589334030174039261347274288845081144962207220498432
1 x__0_10_ + 1 x__1_10_ + 1 x__2_10_ + 1 x__3_10_ + 1 x__4_10_ + 1 x__5_10_ + 1 x__6_10_ + 1 x__7_10_ + 1 x__8_10_ + 1 x__9_10_ + 1 x__10_10_ + 1 x__11_10_ + 1 x__12_10_ + 1 x__13_10_ + 1 x__14_10_ + 1 x__15_10_ + 1 x__16_10_ + 1 x__17_10_ + 1 x__18_10_ + 1 x__19_10_ + 1 x__20_10_ + 1 x__21_10_ + 1 x__22_10_ + 1 x__23_10_ + 1 x__24_10_ + 1 x__25_10_ + 1 x__26_10_ + 1 x__27_10_ + 1 x__28_10_ + 1 x__29_10_ + 1 x__30_10_ + 1 x__31_10_ + 1 x__32_10_ + 1 x__33_10_ + 1 x__34_10_ + 1 x__35_10_ <= 57896044618658097711785492504343953926634992332820282019728792003956564819968
Bounds
0 <= x__E_0_
0 <= x__E_1_
0 <= x__E_2_
0 <= x__E_3_
0 <= x__E_4_
0 <= x__E_5_
0 <= x__E_6_
0 <= x__E_7_
0 <= x__E_8_
0 <= x__E_9_
0 <= x__E_10_
0 <= x__E_11_
0 <= x__E_12_
0 <= x__E_13_
0 <= x__E_14_
0 <= x__E_15_
0 <= x__E_16_
0 <= x__E_17_
0 <= x__E_18_
0 <= x__E_19_
0 <= x__E_20_
0 <= x__E_21_
0 <= x__E_22_
0 <= x__E_23_
0 <= x__E_24_
0 <= x__E_25_
0 <= x__E_26_
0 <= x__E_27_
0 <= x__E_28_
0 <= x__E_29_
0 <= x__E_30_
0 <= x__E_31_
0 <= x__E_32_
0 <= x__E_33_
0 <= x__E_34_
0 <= x__E_35_
0 <= x__0_0_
0 <= x__0_1_
0 <= x__0_2_
0 <= x__0_3_
0 <= x__0_4_
0 <= x__0_5_
0 <= x__0_6_
0 <= x__0_7_
0 <= x__0_8_
0 <= x__0_9_
0 <= x__0_10_
0 <= x__1_0_
0 <= x__1_1_
0 <= x__1_2_
0 <= x__1_3_
0 <= x__1_4_
0 <= x__1_5_
0 <= x__1_6_
0 <= x__1_7_
0 <= x__1_8_
0 <= x__1_9_
0 <= x__1_10_
0 <= x__2_0_
0 <= x__2_1_
0 <= x__2_2_
0 <= x__2_3_
0 <= x__2_4_
0 <= x__2_5_
0 <= x__2_6_
0 <= x__2_7_
0 <= x__2_8_
0 <= x__2_9_
0 <= x__2_10_
0 <= x__3_0_
0 <= x__3_1_
0 <= x__3_2_
0 <= x__3_3_
0 <= x__3_4_
0 <= x__3_5_
0 <= x__3_6_
0 <= x__3_7_
0 <= x__3_8_
0 <= x__3_9_
0 <= x__3_10_
0 <= x__4_0_
0 <= x__4_1_
0 <= x__4_2_
0 <= x__4_3_
0 <= x__4_4_
0 <= x__4_5_
0 <= x__4_6_
0 <= x__4_7_
0 <= x__4_8_
0 <= x__4_9_
0 <= x__4_10_
0 <= x__5_0_
0 <= x__5_1_
0 <= x__5_2_
0 <= x__5_3_
0 <= x__5_4_
0 <= x__5_5_
0 <= x__5_6_
0 <= x__5_7_
0 <= x__5_8_
0 <= x__5_9_
0 <= x__5_10_
0 <= x__6_0_
0 <= x__6_1_
0 <= x__6_2_
0 <= x__6_3_
0 <= x__6_4_
0 <= x__6_5_
0 <= x__6_6_
0 <= x__6_7_
0 <= x__6_8_
0 <= x__6_9_
0 <= x__6_10_
0 <= x__7_0_
0 <= x__7_1_
0 <= x__7_2_
0 <= x__7_3_
0 <= x__7_4_
0 <= x__7_5_
0 <= x__7_6_
0 <= x__7_7_
0 <= x__7_8_
0 <= x__7_9_
0 <= x__7_10_
0 <= x__8_0_
0 <= x__8_1_
0 <= x__8_2_
0 <= x__8_3_
0 <= x__8_4_
0 <= x__8_5_
0 <= x__8_6_
0 <= x__8_7_
0 <= x__8_8_
0 <= x__8_9_
0 <= x__8_10_
0 <= x__9_0_
0 <= x__9_1_
0 <= x__9_2_
0 <= x__9_3_
0 <= x__9_4_
0 <= x__9_5_
0 <= x__9_6_
0 <= x__9_7_
0 <= x__9_8_
0 <= x__9_9_
0 <= x__9_10_
0 <= x__10_0_
0 <= x__10_1_
0 <= x__10_2_
0 <= x__10_3_
0 <= x__10_4_
0 <= x__10_5_
0 <= x__10_6_
0 <= x__10_7_
0 <= x__10_8_
0 <= x__10_9_
0 <= x__10_10_
0 <= x__11_0_
0 <= x__11_1_
0 <= x__11_2_
0 <= x__11_3_
0 <= x__11_4_
0 <= x__11_5_
0 <= x__11_6_
0 <= x__11_7_
0 <= x__11_8_
0 <= x__11_9_
0 <= x__11_10_
0 <= x__12_0_
0 <= x__12_1_
0 <= x__12_2_
0 <= x__12_3_
0 <= x__12_4_
0 <= x__12_5_
0 <= x__12_6_
0 <= x__12_7_
0 <= x__12_8_
0 <= x__12_9_
0 <= x__12_10_
0 <= x__13_0_
0 <= x__13_1_
0 <= x__13_2_
0 <= x__13_3_
0 <= x__13_4_
0 <= x__13_5_
0 <= x__13_6_
0 <= x__13_7_
0 <= x__13_8_
0 <= x__13_9_
0 <= x__13_10_
0 <= x__14_0_
0 <= x__14_1_
0 <= x__14_2_
0 <= x__14_3_
0 <= x__14_4_
0 <= x__14_5_
0 <= x__14_6_
0 <= x__14_7_
0 <= x__14_8_
0 <= x__14_9_
0 <= x__14_10_
0 <= x__15_0_
0 <= x__15_1_
0 <= x__15_2_
0 <= x__15_3_
0 <= x__15_4_
0 <= x__15_5_
0 <= x__15_6_
0 <= x__15_7_
0 <= x__15_8_
0 <= x__15_9_
0 <= x__15_10_
0 <= x__16_0_
0 <= x__16_1_
0 <= x__16_2_
0 <= x__16_3_
0 <= x__16_4_
0 <= x__16_5_
0 <= x__16_6_
0 <= x__16_7_
0 <= x__16_8_
0 <= x__16_9_
0 <= x__16_10_
0 <= x__17_0_
0 <= x__17_1_
0 <= x__17_2_
0 <= x__17_3_
0 <= x__17_4_
0 <= x__17_5_
0 <= x__17_6_
0 <= x__17_7_
0 <= x__17_8_
0 <= x__17_9_
0 <= x__17_10_
0 <= x__18_0_
0 <= x__18_1_
0 <= x__18_2_
0 <= x__18_3_
0 <= x__18_4_
0 <= x__18_5_
0 <= x__18_6_
0 <= x__18_7_
0 <= x__18_8_
0 <= x__18_9_
0 <= x__18_10_
0 <= x__19_0_
0 <= x__19_1_
0 <= x__19_2_
0 <= x__19_3_
0 <= x__19_4_
0 <= x__19_5_
0 <= x__19_6_
0 <= x__19_7_
0 <= x__19_8_
0 <= x__19_9_
0 <= x__19_10_
0 <= x__20_0_
0 <= x__20_1_
0 <= x__20_2_
0 <= x__20_3_
0 <= x__20_4_
0 <= x__20_5_
0 <= x__20_6_
0 <= x__20_7_
0 <= x__20_8_
0 <= x__20_9_
0 <= x__20_10_
0 <= x__21_0_
0 <= x__21_1_
0 <= x__21_2_
0 <= x__21_3_
0 <= x__21_4_
0 <= x__21_5_
0 <= x__21_6_
0 <= x__21_7_
0 <= x__21_8_
0 <= x__21_9_
0 <= x__21_10_
0 <= x__22_0_
0 <= x__22_1_
0 <= x__22_2_
0 <= x__22_3_
0 <= x__22_4_
0 <= x__22_5_
0 <= x__22_6_
0 <= x__22_7_
0 <= x__22_8_
0 <= x__22_9_
0 <= x__22_10_
0 <= x__23_0_
0 <= x__23_1_
0 <= x__23_2_
0 <= x__23_3_
0 <= x__23_4_
0 <= x__23_5_
0 <= x__23_6_
0 <= x__23_7_
0 <= x__23_8_
0 <= x__23_9_
0 <= x__23_10_
0 <= x__24_0_
0 <= x__24_1_
0 <= x__24_2_
0 <= x__24_3_
0 <= x__24_4_
0 <= x__24_5_
0 <= x__24_6_
0 <= x__24_7_
0 <= x__24_8_
0 <= x__24_9_
0 <= x__24_10_
0 <= x__25_0_
0 <= x__25_1_
0 <= x__25_2_
0 <= x__25_3_
0 <= x__25_4_
0 <= x__25_5_
0 <= x__25_6_
0 <= x__25_7_
0 <= x__25_8_
0 <= x__25_9_
0 <= x__25_10_
0 <= x__26_0_
0 <= x__26_1_
0 <= x__26_2_
0 <= x__26_3_
0 <= x__26_4_
0 <= x__26_5_
0 <= x__26_6_
0 <= x__26_7_
0 <= x__26_8_
0 <= x__26_9_
0 <= x__26_10_
0 <= x__27_0_
0 <= x__27_1_
0 <= x__27_2_
0 <= x__27_3_
0 <= x__27_4_
0 <= x__27_5_
0 <= x__27_6_
0 <= x__27_7_
0 <= x__27_8_
0 <= x__27_9_
0 <= x__27_10_
0 <= x__28_0_
0 <= x__28_1_
0 <= x__28_2_
0 <= x__28_3_
0 <= x__28_4_
0 <= x__28_5_
0 <= x__28_6_
0 <= x__28_7_
0 <= x__28_8_
0 <= x__28_9_
0 <= x__28_10_
0 <= x__29_0_
0 <= x__29_1_
0 <= x__29_2_
0 <= x__29_3_
0 <= x__29_4_
0 <= x__29_5_
0 <= x__29_6_
0 <= x__29_7_
0 <= x__29_8_
0 <= x__29_9_
0 <= x__29_10_
0 <= x__30_0_
0 <= x__30_1_
0 <= x__30_2_
0 <= x__30_3_
0 <= x__30_4_
0 <= x__30_5_
0 <= x__30_6_
0 <= x__30_7_
0 <= x__30_8_
0 <= x__30_9_
0 <= x__30_10_
0 <= x__31_0_
0 <= x__31_1_
0 <= x__31_2_
0 <= x__31_3_
0 <= x__31_4_
0 <= x__31_5_
0 <= x__31_6_
0 <= x__31_7_
0 <= x__31_8_
0 <= x__31_9_
0 <= x__31_10_
0 <= x__32_0_
0 <= x__32_1_
0 <= x__32_2_
0 <= x__32_3_
0 <= x__32_4_
0 <= x__32_5_
0 <= x__32_6_
0 <= x__32_7_
0 <= x__32_8_
0 <= x__32_9_
0 <= x__32_10_
0 <= x__33_0_
0 <= x__33_1_
0 <= x__33_2_
0 <= x__33_3_
0 <= x__33_4_
0 <= x__33_5_
0 <= x__33_6_
0 <= x__33_7_
0 <= x__33_8_
0 <= x__33_9_
0 <= x__33_10_
0 <= x__34_0_
0 <= x__34_1_
0 <= x__34_2_
0 <= x__34_3_
0 <= x__34_4_
0 <= x__34_5_
0 <= x__34_6_
0 <= x__34_7_
0 <= x__34_8_
0 <= x__34_9_
0 <= x__34_10_
0 <= x__35_0_
0 <= x__35_1_
0 <= x__35_2_
0 <= x__35_3_
0 <= x__35_4_
0 <= x__35_5_
0 <= x__35_6_
0 <= x__35_7_
0 <= x__35_8_
0 <= x__35_9_
0 <= x__35_10_
End
